p cnf 200 1110
-101 8 0
-101 72 0
-101 21 0
-101 -88 0
-101 -60 0
-101 -87 0
-101 -55 0
-101 66 0
-101 -53 0
-101 78 0
101 -8 -72 -21 88 60 87 55 -66 53 -78 0
-102 67 0
-102 -18 0
-102 29 0
-102 -55 0
-102 74 0
-102 -15 0
-102 -60 0
-102 85 0
-102 -50 0
-102 -43 0
102 -67 18 -29 55 -74 15 60 -85 50 43 0
-103 -19 0
-103 72 0
-103 12 0
-103 33 0
-103 54 0
-103 82 0
-103 49 0
-103 -14 0
-103 -30 0
-103 31 0
103 19 -72 -12 -33 -54 -82 -49 14 30 -31 0
-104 60 0
-104 28 0
-104 63 0
-104 73 0
-104 42 0
-104 -41 0
-104 -54 0
-104 -92 0
-104 -32 0
-104 77 0
104 -60 -28 -63 -73 -42 41 54 92 32 -77 0
-105 24 0
-105 -51 0
-105 45 0
-105 11 0
-105 -21 0
-105 92 0
-105 69 0
-105 -35 0
-105 41 0
-105 67 0
105 -24 51 -45 -11 21 -92 -69 35 -41 -67 0
-106 18 0
-106 74 0
-106 -42 0
-106 -95 0
-106 82 0
-106 -84 0
-106 -47 0
-106 -16 0
-106 50 0
-106 -24 0
106 -18 -74 42 95 -82 84 47 16 -50 24 0
-107 10 0
-107 78 0
-107 -100 0
-107 -3 0
-107 30 0
-107 -12 0
-107 -6 0
-107 -90 0
-107 -57 0
-107 -54 0
107 -10 -78 100 3 -30 12 6 90 57 54 0
-108 68 0
-108 -22 0
-108 -79 0
-108 13 0
-108 21 0
-108 -3 0
-108 40 0
-108 -94 0
-108 -58 0
-108 -86 0
108 -68 22 79 -13 -21 3 -40 94 58 86 0
-109 18 0
-109 63 0
-109 37 0
-109 -76 0
-109 52 0
-109 -8 0
-109 86 0
-109 5 0
-109 -12 0
-109 -46 0
109 -18 -63 -37 76 -52 8 -86 -5 12 46 0
-110 -5 0
-110 -46 0
-110 -53 0
-110 -31 0
-110 78 0
-110 62 0
-110 -73 0
-110 4 0
-110 -15 0
-110 -13 0
110 5 46 53 31 -78 -62 73 -4 15 13 0
101 102 103 104 105 106 107 108 109 110 0
-111 36 0
-111 -77 0
-111 -64 0
-111 -8 0
-111 73 0
-111 4 0
-111 12 0
-111 47 0
-111 -58 0
-111 -5 0
111 -36 77 64 8 -73 -4 -12 -47 58 5 0
-112 -72 0
-112 -71 0
-112 17 0
-112 -94 0
-112 19 0
-112 -85 0
-112 -16 0
-112 -80 0
-112 -61 0
-112 -49 0
112 72 71 -17 94 -19 85 16 80 61 49 0
-113 -46 0
-113 77 0
-113 89 0
-113 -55 0
-113 -54 0
-113 52 0
-113 76 0
-113 -99 0
-113 34 0
-113 65 0
113 46 -77 -89 55 54 -52 -76 99 -34 -65 0
-114 81 0
-114 -85 0
-114 -37 0
-114 -30 0
-114 -62 0
-114 -69 0
-114 -56 0
-114 -22 0
-114 36 0
-114 -60 0
114 -81 85 37 30 62 69 56 22 -36 60 0
-115 -88 0
-115 53 0
-115 -59 0
-115 -25 0
-115 -62 0
-115 -22 0
-115 98 0
-115 72 0
-115 85 0
-115 35 0
115 88 -53 59 25 62 22 -98 -72 -85 -35 0
-116 -28 0
-116 -86 0
-116 -3 0
-116 72 0
-116 9 0
-116 -94 0
-116 -84 0
-116 -39 0
-116 -85 0
-116 65 0
116 28 86 3 -72 -9 94 84 39 85 -65 0
-117 9 0
-117 33 0
-117 -51 0
-117 74 0
-117 97 0
-117 -39 0
-117 -79 0
-117 -26 0
-117 -3 0
-117 -90 0
117 -9 -33 51 -74 -97 39 79 26 3 90 0
-118 -19 0
-118 53 0
-118 34 0
-118 43 0
-118 -93 0
-118 -42 0
-118 15 0
-118 95 0
-118 -75 0
-118 -67 0
118 19 -53 -34 -43 93 42 -15 -95 75 67 0
-119 14 0
-119 87 0
-119 -46 0
-119 26 0
-119 100 0
-119 12 0
-119 -67 0
-119 -56 0
-119 -38 0
-119 -40 0
119 -14 -87 46 -26 -100 -12 67 56 38 40 0
-120 -32 0
-120 -77 0
-120 88 0
-120 -94 0
-120 79 0
-120 -58 0
-120 62 0
-120 66 0
-120 -21 0
-120 -81 0
120 32 77 -88 94 -79 58 -62 -66 21 81 0
111 112 113 114 115 116 117 118 119 120 0
-121 51 0
-121 32 0
-121 60 0
-121 -45 0
-121 -84 0
-121 24 0
-121 -21 0
-121 59 0
-121 -92 0
-121 -3 0
121 -51 -32 -60 45 84 -24 21 -59 92 3 0
-122 60 0
-122 68 0
-122 -64 0
-122 89 0
-122 80 0
-122 15 0
-122 48 0
-122 -100 0
-122 11 0
-122 -69 0
122 -60 -68 64 -89 -80 -15 -48 100 -11 69 0
-123 74 0
-123 -5 0
-123 -56 0
-123 -80 0
-123 -57 0
-123 64 0
-123 35 0
-123 55 0
-123 -87 0
-123 19 0
123 -74 5 56 80 57 -64 -35 -55 87 -19 0
-124 -33 0
-124 -13 0
-124 18 0
-124 -15 0
-124 -43 0
-124 -9 0
-124 98 0
-124 78 0
-124 54 0
-124 -88 0
124 33 13 -18 15 43 9 -98 -78 -54 88 0
-125 85 0
-125 -95 0
-125 26 0
-125 -6 0
-125 13 0
-125 97 0
-125 -30 0
-125 -35 0
-125 -9 0
-125 12 0
125 -85 95 -26 6 -13 -97 30 35 9 -12 0
-126 60 0
-126 -79 0
-126 80 0
-126 -85 0
-126 95 0
-126 81 0
-126 32 0
-126 -69 0
-126 -76 0
-126 -99 0
126 -60 79 -80 85 -95 -81 -32 69 76 99 0
-127 -19 0
-127 74 0
-127 -99 0
-127 20 0
-127 5 0
-127 -48 0
-127 88 0
-127 85 0
-127 92 0
-127 -73 0
127 19 -74 99 -20 -5 48 -88 -85 -92 73 0
-128 -50 0
-128 96 0
-128 58 0
-128 -53 0
-128 -29 0
-128 75 0
-128 -18 0
-128 90 0
-128 -65 0
-128 98 0
128 50 -96 -58 53 29 -75 18 -90 65 -98 0
-129 10 0
-129 -53 0
-129 -20 0
-129 -72 0
-129 -66 0
-129 78 0
-129 68 0
-129 -45 0
-129 55 0
-129 7 0
129 -10 53 20 72 66 -78 -68 45 -55 -7 0
-130 70 0
-130 78 0
-130 32 0
-130 -86 0
-130 -88 0
-130 79 0
-130 28 0
-130 -42 0
-130 23 0
-130 15 0
130 -70 -78 -32 86 88 -79 -28 42 -23 -15 0
121 122 123 124 125 126 127 128 129 130 0
-131 -51 0
-131 21 0
-131 -29 0
-131 -42 0
-131 62 0
-131 -9 0
-131 47 0
-131 -37 0
-131 -61 0
-131 -69 0
131 51 -21 29 42 -62 9 -47 37 61 69 0
-132 -56 0
-132 -81 0
-132 -93 0
-132 -58 0
-132 -4 0
-132 -24 0
-132 8 0
-132 96 0
-132 45 0
-132 -43 0
132 56 81 93 58 4 24 -8 -96 -45 43 0
-133 92 0
-133 -22 0
-133 9 0
-133 -58 0
-133 3 0
-133 -99 0
-133 -38 0
-133 89 0
-133 -62 0
-133 43 0
133 -92 22 -9 58 -3 99 38 -89 62 -43 0
-134 61 0
-134 -91 0
-134 9 0
-134 -55 0
-134 35 0
-134 -98 0
-134 84 0
-134 32 0
-134 -54 0
-134 -88 0
134 -61 91 -9 55 -35 98 -84 -32 54 88 0
-135 8 0
-135 80 0
-135 32 0
-135 83 0
-135 -30 0
-135 19 0
-135 -86 0
-135 -90 0
-135 7 0
-135 -79 0
135 -8 -80 -32 -83 30 -19 86 90 -7 79 0
-136 67 0
-136 29 0
-136 34 0
-136 19 0
-136 -74 0
-136 20 0
-136 -77 0
-136 79 0
-136 18 0
-136 56 0
136 -67 -29 -34 -19 74 -20 77 -79 -18 -56 0
-137 -19 0
-137 98 0
-137 64 0
-137 8 0
-137 -38 0
-137 39 0
-137 47 0
-137 -89 0
-137 22 0
-137 12 0
137 19 -98 -64 -8 38 -39 -47 89 -22 -12 0
-138 -59 0
-138 -18 0
-138 36 0
-138 -73 0
-138 -23 0
-138 -52 0
-138 -19 0
-138 -68 0
-138 -83 0
-138 -91 0
138 59 18 -36 73 23 52 19 68 83 91 0
-139 30 0
-139 27 0
-139 34 0
-139 -46 0
-139 -4 0
-139 89 0
-139 24 0
-139 -66 0
-139 -82 0
-139 -41 0
139 -30 -27 -34 46 4 -89 -24 66 82 41 0
-140 -44 0
-140 63 0
-140 76 0
-140 22 0
-140 -82 0
-140 41 0
-140 -60 0
-140 75 0
-140 98 0
-140 -100 0
140 44 -63 -76 -22 82 -41 60 -75 -98 100 0
131 132 133 134 135 136 137 138 139 140 0
-141 -7 0
-141 -12 0
-141 23 0
-141 66 0
-141 -78 0
-141 3 0
-141 -82 0
-141 9 0
-141 24 0
-141 68 0
141 7 12 -23 -66 78 -3 82 -9 -24 -68 0
-142 82 0
-142 -75 0
-142 4 0
-142 -92 0
-142 -88 0
-142 -42 0
-142 -65 0
-142 15 0
-142 -13 0
-142 -12 0
142 -82 75 -4 92 88 42 65 -15 13 12 0
-143 6 0
-143 96 0
-143 -35 0
-143 58 0
-143 88 0
-143 -99 0
-143 43 0
-143 27 0
-143 -23 0
-143 13 0
143 -6 -96 35 -58 -88 99 -43 -27 23 -13 0
-144 67 0
-144 78 0
-144 -81 0
-144 -47 0
-144 37 0
-144 -50 0
-144 88 0
-144 -62 0
-144 74 0
-144 -89 0
144 -67 -78 81 47 -37 50 -88 62 -74 89 0
-145 15 0
-145 -52 0
-145 -7 0
-145 -54 0
-145 -42 0
-145 -53 0
-145 59 0
-145 -65 0
-145 -61 0
-145 -62 0
145 -15 52 7 54 42 53 -59 65 61 62 0
-146 -59 0
-146 -34 0
-146 73 0
-146 -2 0
-146 75 0
-146 21 0
-146 66 0
-146 51 0
-146 -83 0
-146 47 0
146 59 34 -73 2 -75 -21 -66 -51 83 -47 0
-147 -73 0
-147 61 0
-147 -43 0
-147 -47 0
-147 83 0
-147 42 0
-147 90 0
-147 10 0
-147 -71 0
-147 70 0
147 73 -61 43 47 -83 -42 -90 -10 71 -70 0
-148 -39 0
-148 -35 0
-148 -55 0
-148 65 0
-148 -27 0
-148 -36 0
-148 -40 0
-148 92 0
-148 -16 0
-148 -54 0
148 39 35 55 -65 27 36 40 -92 16 54 0
-149 25 0
-149 79 0
-149 -62 0
-149 -87 0
-149 -7 0
-149 -84 0
-149 -70 0
-149 -11 0
-149 40 0
-149 -65 0
149 -25 -79 62 87 7 84 70 11 -40 65 0
-150 -78 0
-150 -11 0
-150 -58 0
-150 2 0
-150 -54 0
-150 -52 0
-150 -68 0
-150 99 0
-150 93 0
-150 -53 0
150 78 11 58 -2 54 52 68 -99 -93 53 0
141 142 143 144 145 146 147 148 149 150 0
-151 64 0
-151 6 0
-151 -90 0
-151 2 0
-151 21 0
-151 -18 0
-151 43 0
-151 72 0
-151 -62 0
-151 -12 0
151 -64 -6 90 -2 -21 18 -43 -72 62 12 0
-152 74 0
-152 -42 0
-152 92 0
-152 88 0
-152 -58 0
-152 -80 0
-152 -26 0
-152 65 0
-152 39 0
-152 31 0
152 -74 42 -92 -88 58 80 26 -65 -39 -31 0
-153 43 0
-153 -34 0
-153 15 0
-153 -82 0
-153 -25 0
-153 -61 0
-153 -68 0
-153 -38 0
-153 -63 0
-153 -55 0
153 -43 34 -15 82 25 61 68 38 63 55 0
-154 -83 0
-154 -28 0
-154 -71 0
-154 37 0
-154 54 0
-154 -73 0
-154 72 0
-154 12 0
-154 74 0
-154 24 0
154 83 28 71 -37 -54 73 -72 -12 -74 -24 0
-155 -60 0
-155 -41 0
-155 -77 0
-155 -55 0
-155 -74 0
-155 90 0
-155 -9 0
-155 84 0
-155 -38 0
-155 31 0
155 60 41 77 55 74 -90 9 -84 38 -31 0
-156 -87 0
-156 -13 0
-156 -51 0
-156 100 0
-156 65 0
-156 4 0
-156 83 0
-156 -97 0
-156 27 0
-156 63 0
156 87 13 51 -100 -65 -4 -83 97 -27 -63 0
-157 -7 0
-157 17 0
-157 49 0
-157 -73 0
-157 50 0
-157 85 0
-157 -79 0
-157 11 0
-157 -58 0
-157 99 0
157 7 -17 -49 73 -50 -85 79 -11 58 -99 0
-158 -39 0
-158 -3 0
-158 19 0
-158 8 0
-158 -14 0
-158 75 0
-158 97 0
-158 52 0
-158 51 0
-158 -50 0
158 39 3 -19 -8 14 -75 -97 -52 -51 50 0
-159 -37 0
-159 93 0
-159 98 0
-159 70 0
-159 -4 0
-159 12 0
-159 61 0
-159 32 0
-159 -34 0
-159 -90 0
159 37 -93 -98 -70 4 -12 -61 -32 34 90 0
-160 -81 0
-160 83 0
-160 40 0
-160 4 0
-160 -86 0
-160 -85 0
-160 -90 0
-160 15 0
-160 -75 0
-160 24 0
160 81 -83 -40 -4 86 85 90 -15 75 -24 0
151 152 153 154 155 156 157 158 159 160 0
-161 45 0
-161 -83 0
-161 90 0
-161 89 0
-161 17 0
-161 100 0
-161 37 0
-161 79 0
-161 56 0
-161 -72 0
161 -45 83 -90 -89 -17 -100 -37 -79 -56 72 0
-162 -62 0
-162 -12 0
-162 -73 0
-162 -98 0
-162 -26 0
-162 91 0
-162 49 0
-162 -97 0
-162 71 0
-162 -80 0
162 62 12 73 98 26 -91 -49 97 -71 80 0
-163 20 0
-163 -57 0
-163 -94 0
-163 -79 0
-163 45 0
-163 -44 0
-163 84 0
-163 -60 0
-163 53 0
-163 -25 0
163 -20 57 94 79 -45 44 -84 60 -53 25 0
-164 36 0
-164 59 0
-164 -84 0
-164 -17 0
-164 -23 0
-164 30 0
-164 -44 0
-164 -57 0
-164 -82 0
-164 -54 0
164 -36 -59 84 17 23 -30 44 57 82 54 0
-165 -35 0
-165 -5 0
-165 -84 0
-165 -41 0
-165 40 0
-165 47 0
-165 -9 0
-165 -98 0
-165 18 0
-165 -55 0
165 35 5 84 41 -40 -47 9 98 -18 55 0
-166 27 0
-166 -86 0
-166 75 0
-166 20 0
-166 4 0
-166 37 0
-166 -94 0
-166 25 0
-166 -9 0
-166 3 0
166 -27 86 -75 -20 -4 -37 94 -25 9 -3 0
-167 -45 0
-167 53 0
-167 -76 0
-167 39 0
-167 63 0
-167 -4 0
-167 11 0
-167 22 0
-167 34 0
-167 23 0
167 45 -53 76 -39 -63 4 -11 -22 -34 -23 0
-168 10 0
-168 84 0
-168 42 0
-168 58 0
-168 -28 0
-168 21 0
-168 -96 0
-168 9 0
-168 98 0
-168 89 0
168 -10 -84 -42 -58 28 -21 96 -9 -98 -89 0
-169 -15 0
-169 -70 0
-169 30 0
-169 -4 0
-169 14 0
-169 -13 0
-169 16 0
-169 -46 0
-169 35 0
-169 -100 0
169 15 70 -30 4 -14 13 -16 46 -35 100 0
-170 -76 0
-170 -36 0
-170 81 0
-170 78 0
-170 50 0
-170 65 0
-170 -26 0
-170 11 0
-170 4 0
-170 -29 0
170 76 36 -81 -78 -50 -65 26 -11 -4 29 0
161 162 163 164 165 166 167 168 169 170 0
-171 -44 0
-171 57 0
-171 21 0
-171 62 0
-171 -31 0
-171 36 0
-171 -34 0
-171 -81 0
-171 -1 0
-171 70 0
171 44 -57 -21 -62 31 -36 34 81 1 -70 0
-172 28 0
-172 6 0
-172 -41 0
-172 38 0
-172 97 0
-172 69 0
-172 57 0
-172 -32 0
-172 -35 0
-172 98 0
172 -28 -6 41 -38 -97 -69 -57 32 35 -98 0
-173 -36 0
-173 82 0
-173 -75 0
-173 -78 0
-173 88 0
-173 -40 0
-173 24 0
-173 19 0
-173 -92 0
-173 15 0
173 36 -82 75 78 -88 40 -24 -19 92 -15 0
-174 9 0
-174 67 0
-174 38 0
-174 -69 0
-174 85 0
-174 -50 0
-174 -81 0
-174 -27 0
-174 -34 0
-174 -14 0
174 -9 -67 -38 69 -85 50 81 27 34 14 0
-175 -75 0
-175 -62 0
-175 -65 0
-175 -78 0
-175 36 0
-175 74 0
-175 91 0
-175 23 0
-175 -73 0
-175 -13 0
175 75 62 65 78 -36 -74 -91 -23 73 13 0
-176 7 0
-176 -88 0
-176 -26 0
-176 68 0
-176 25 0
-176 -99 0
-176 96 0
-176 16 0
-176 -43 0
-176 -33 0
176 -7 88 26 -68 -25 99 -96 -16 43 33 0
-177 -30 0
-177 -70 0
-177 -83 0
-177 45 0
-177 32 0
-177 43 0
-177 11 0
-177 -97 0
-177 87 0
-177 -40 0
177 30 70 83 -45 -32 -43 -11 97 -87 40 0
-178 8 0
-178 71 0
-178 -17 0
-178 -15 0
-178 84 0
-178 65 0
-178 -35 0
-178 51 0
-178 -27 0
-178 89 0
178 -8 -71 17 15 -84 -65 35 -51 27 -89 0
-179 -57 0
-179 87 0
-179 -20 0
-179 33 0
-179 -43 0
-179 -80 0
-179 16 0
-179 55 0
-179 52 0
-179 85 0
179 57 -87 20 -33 43 80 -16 -55 -52 -85 0
-180 -37 0
-180 -58 0
-180 57 0
-180 34 0
-180 68 0
-180 -27 0
-180 -14 0
-180 -2 0
-180 -56 0
-180 71 0
180 37 58 -57 -34 -68 27 14 2 56 -71 0
171 172 173 174 175 176 177 178 179 180 0
-181 25 0
-181 32 0
-181 -2 0
-181 -97 0
-181 -7 0
-181 35 0
-181 -62 0
-181 -99 0
-181 70 0
-181 -84 0
181 -25 -32 2 97 7 -35 62 99 -70 84 0
-182 -68 0
-182 70 0
-182 -12 0
-182 -26 0
-182 -50 0
-182 91 0
-182 -92 0
-182 95 0
-182 -46 0
-182 -65 0
182 68 -70 12 26 50 -91 92 -95 46 65 0
-183 -30 0
-183 -83 0
-183 21 0
-183 -86 0
-183 -38 0
-183 -81 0
-183 49 0
-183 75 0
-183 33 0
-183 -9 0
183 30 83 -21 86 38 81 -49 -75 -33 9 0
-184 -55 0
-184 91 0
-184 -8 0
-184 -4 0
-184 -17 0
-184 41 0
-184 9 0
-184 -43 0
-184 -5 0
-184 97 0
184 55 -91 8 4 17 -41 -9 43 5 -97 0
-185 -49 0
-185 -56 0
-185 -24 0
-185 58 0
-185 -96 0
-185 74 0
-185 44 0
-185 -51 0
-185 95 0
-185 97 0
185 49 56 24 -58 96 -74 -44 51 -95 -97 0
-186 42 0
-186 -36 0
-186 78 0
-186 27 0
-186 20 0
-186 53 0
-186 -10 0
-186 40 0
-186 98 0
-186 -59 0
186 -42 36 -78 -27 -20 -53 10 -40 -98 59 0
-187 -79 0
-187 82 0
-187 8 0
-187 33 0
-187 30 0
-187 -13 0
-187 47 0
-187 -60 0
-187 68 0
-187 12 0
187 79 -82 -8 -33 -30 13 -47 60 -68 -12 0
-188 -11 0
-188 18 0
-188 -69 0
-188 41 0
-188 75 0
-188 -34 0
-188 -77 0
-188 -32 0
-188 -100 0
-188 -17 0
188 11 -18 69 -41 -75 34 77 32 100 17 0
-189 -22 0
-189 -76 0
-189 -8 0
-189 99 0
-189 7 0
-189 -73 0
-189 72 0
-189 75 0
-189 -46 0
-189 -12 0
189 22 76 8 -99 -7 73 -72 -75 46 12 0
-190 -50 0
-190 -54 0
-190 62 0
-190 17 0
-190 40 0
-190 89 0
-190 -53 0
-190 -43 0
-190 -38 0
-190 -2 0
190 50 54 -62 -17 -40 -89 53 43 38 2 0
181 182 183 184 185 186 187 188 189 190 0
-191 -20 0
-191 48 0
-191 -100 0
-191 74 0
-191 43 0
-191 -29 0
-191 -13 0
-191 -4 0
-191 -1 0
-191 -79 0
191 20 -48 100 -74 -43 29 13 4 1 79 0
-192 -65 0
-192 45 0
-192 94 0
-192 8 0
-192 17 0
-192 54 0
-192 43 0
-192 10 0
-192 -1 0
-192 55 0
192 65 -45 -94 -8 -17 -54 -43 -10 1 -55 0
-193 51 0
-193 63 0
-193 42 0
-193 73 0
-193 22 0
-193 -40 0
-193 -71 0
-193 -39 0
-193 44 0
-193 -77 0
193 -51 -63 -42 -73 -22 40 71 39 -44 77 0
-194 -1 0
-194 -14 0
-194 -2 0
-194 -88 0
-194 85 0
-194 84 0
-194 -57 0
-194 54 0
-194 86 0
-194 8 0
194 1 14 2 88 -85 -84 57 -54 -86 -8 0
-195 69 0
-195 -47 0
-195 -7 0
-195 -16 0
-195 -30 0
-195 61 0
-195 29 0
-195 88 0
-195 -1 0
-195 85 0
195 -69 47 7 16 30 -61 -29 -88 1 -85 0
-196 18 0
-196 13 0
-196 72 0
-196 -16 0
-196 -47 0
-196 59 0
-196 97 0
-196 -71 0
-196 14 0
-196 -98 0
196 -18 -13 -72 16 47 -59 -97 71 -14 98 0
-197 39 0
-197 -15 0
-197 -100 0
-197 98 0
-197 -40 0
-197 90 0
-197 4 0
-197 42 0
-197 68 0
-197 3 0
197 -39 15 100 -98 40 -90 -4 -42 -68 -3 0
-198 -73 0
-198 -60 0
-198 76 0
-198 -29 0
-198 68 0
-198 -98 0
-198 59 0
-198 28 0
-198 -19 0
-198 70 0
198 73 60 -76 29 -68 98 -59 -28 19 -70 0
-199 64 0
-199 -77 0
-199 78 0
-199 -18 0
-199 -72 0
-199 58 0
-199 -1 0
-199 36 0
-199 88 0
-199 56 0
199 -64 77 -78 18 72 -58 1 -36 -88 -56 0
-200 52 0
-200 -28 0
-200 9 0
-200 23 0
-200 13 0
-200 49 0
-200 71 0
-200 20 0
-200 -41 0
-200 54 0
200 -52 28 -9 -23 -13 -49 -71 -20 41 -54 0
191 192 193 194 195 196 197 198 199 200 0
